p edge 300 917
e 1 30
e 1 37
e 1 57
e 1 108
e 1 132
e 1 139
e 2 37
e 2 39
e 2 98
e 2 178
e 2 218
e 2 235
e 2 258
e 2 280
e 3 27
e 3 28
e 3 37
e 3 43
e 3 85
e 3 185
e 3 212
e 4 29
e 4 36
e 4 110
e 4 206
e 5 46
e 5 83
e 5 122
e 5 141
e 5 160
e 5 195
e 5 205
e 5 278
e 6 113
e 6 247
e 6 249
e 6 250
e 6 291
e 7 57
e 7 73
e 7 85
e 7 92
e 7 105
e 7 114
e 7 115
e 7 132
e 7 161
e 7 166
e 7 168
e 7 262
e 7 280
e 7 281
e 7 292
e 8 172
e 8 205
e 8 210
e 8 216
e 9 20
e 9 42
e 9 49
e 9 59
e 9 72
e 9 88
e 9 119
e 9 225
e 9 227
e 9 231
e 10 18
e 10 35
e 10 95
e 10 106
e 10 141
e 10 164
e 10 178
e 10 192
e 10 200
e 10 274
e 10 292
e 11 17
e 11 49
e 11 177
e 11 219
e 11 258
e 12 71
e 12 218
e 12 227
e 12 239
e 13 68
e 13 127
e 13 179
e 13 270
e 13 295
e 14 37
e 14 205
e 14 264
e 14 285
e 15 30
e 15 86
e 15 156
e 15 226
e 15 290
e 16 21
e 16 110
e 16 207
e 16 249
e 16 270
e 17 61
e 17 150
e 17 171
e 17 194
e 17 215
e 17 272
e 18 83
e 18 98
e 18 166
e 18 216
e 19 46
e 19 158
e 19 160
e 19 169
e 19 263
e 20 31
e 20 83
e 20 87
e 20 91
e 20 135
e 20 245
e 20 260
e 21 81
e 21 252
e 21 258
e 21 300
e 22 25
e 22 103
e 22 105
e 22 156
e 22 192
e 22 199
e 22 203
e 22 212
e 22 237
e 22 284
e 22 293
e 23 31
e 23 35
e 23 49
e 23 60
e 23 128
e 23 175
e 23 221
e 24 77
e 24 134
e 24 142
e 24 153
e 24 160
e 24 178
e 24 195
e 24 203
e 24 208
e 25 33
e 25 104
e 25 131
e 25 148
e 25 177
e 26 52
e 26 72
e 26 74
e 26 108
e 26 260
e 27 60
e 27 228
e 28 80
e 28 159
e 28 189
e 29 66
e 29 91
e 29 120
e 29 159
e 29 168
e 29 192
e 29 211
e 29 260
e 30 66
e 30 126
e 30 130
e 30 204
e 30 291
e 30 293
e 31 101
e 31 283
e 31 292
e 32 66
e 32 90
e 32 98
e 32 177
e 32 219
e 32 256
e 33 64
e 33 83
e 33 92
e 33 107
e 33 126
e 33 130
e 33 153
e 33 164
e 33 170
e 33 187
e 33 207
e 33 213
e 34 77
e 34 125
e 34 191
e 34 241
e 34 276
e 35 122
e 35 135
e 35 138
e 35 197
e 35 243
e 35 254
e 36 87
e 36 128
e 36 204
e 36 209
e 36 254
e 37 47
e 37 175
e 37 180
e 37 281
e 38 53
e 38 83
e 38 126
e 38 169
e 38 209
e 38 219
e 38 293
e 38 299
e 39 59
e 39 69
e 39 94
e 39 136
e 39 145
e 39 164
e 39 178
e 39 189
e 39 230
e 39 240
e 39 264
e 40 193
e 40 211
e 41 57
e 41 60
e 41 86
e 41 98
e 41 181
e 42 59
e 42 83
e 42 115
e 42 146
e 43 105
e 43 111
e 43 201
e 43 216
e 43 265
e 43 269
e 44 175
e 44 183
e 44 200
e 45 111
e 45 122
e 45 149
e 45 245
e 45 299
e 46 132
e 46 182
e 46 213
e 46 271
e 46 293
e 47 134
e 47 210
e 48 138
e 48 141
e 48 149
e 48 152
e 48 216
e 48 220
e 49 68
e 49 89
e 49 129
e 49 247
e 49 250
e 49 251
e 49 274
e 50 81
e 50 166
e 50 173
e 50 246
e 51 87
e 52 53
e 52 104
e 52 158
e 52 167
e 52 182
e 52 217
e 52 296
e 53 110
e 53 113
e 53 137
e 53 170
e 53 190
e 53 257
e 53 267
e 54 127
e 54 175
e 54 180
e 55 127
e 55 171
e 55 191
e 55 206
e 55 241
e 55 277
e 56 94
e 56 127
e 56 165
e 56 274
e 56 278
e 56 281
e 57 93
e 57 157
e 57 168
e 57 183
e 57 193
e 57 271
e 57 275
e 57 296
e 58 69
e 58 70
e 58 216
e 58 289
e 59 150
e 59 184
e 59 190
e 59 236
e 59 288
e 60 84
e 60 89
e 60 252
e 61 69
e 61 86
e 61 163
e 61 226
e 62 172
e 62 174
e 62 198
e 62 202
e 62 285
e 62 296
e 63 205
e 63 212
e 63 227
e 63 229
e 64 75
e 64 226
e 65 172
e 65 208
e 66 100
e 66 154
e 66 200
e 67 122
e 67 261
e 67 273
e 67 278
e 68 106
e 68 113
e 68 149
e 68 160
e 68 221
e 68 247
e 68 290
e 69 88
e 69 113
e 69 131
e 69 136
e 69 281
e 70 74
e 70 299
e 71 86
e 71 100
e 71 123
e 71 139
e 71 271
e 72 108
e 72 185
e 72 277
e 72 283
e 73 153
e 73 231
e 73 268
e 73 271
e 73 287
e 74 127
e 74 192
e 75 117
e 75 205
e 75 211
e 75 213
e 75 239
e 75 289
e 76 167
e 76 183
e 76 195
e 76 209
e 76 214
e 76 266
e 77 78
e 77 143
e 77 184
e 77 186
e 77 269
e 77 273
e 78 107
e 78 188
e 78 242
e 78 259
e 79 94
e 79 162
e 79 214
e 79 292
e 80 94
e 80 100
e 80 173
e 80 174
e 80 181
e 80 202
e 80 215
e 80 272
e 81 90
e 81 187
e 81 230
e 81 243
e 81 253
e 82 138
e 83 105
e 83 139
e 83 151
e 84 110
e 84 145
e 84 176
e 84 255
e 85 178
e 85 249
e 85 280
e 85 289
e 86 95
e 86 126
e 86 293
e 87 126
e 87 141
e 87 144
e 87 171
e 87 234
e 87 238
e 88 113
e 88 282
e 89 90
e 89 119
e 89 158
e 89 214
e 90 141
e 90 202
e 90 210
e 90 266
e 90 272
e 91 120
e 91 140
e 91 251
e 92 109
e 92 176
e 92 191
e 92 214
e 92 244
e 92 299
e 93 116
e 93 132
e 93 175
e 93 229
e 93 235
e 94 145
e 94 180
e 94 245
e 94 247
e 95 98
e 95 163
e 95 234
e 96 99
e 96 110
e 96 128
e 96 164
e 96 221
e 96 235
e 96 282
e 97 201
e 97 220
e 97 295
e 98 135
e 98 180
e 98 285
e 98 293
e 98 295
e 99 127
e 99 141
e 99 234
e 99 241
e 100 153
e 100 169
e 100 207
e 100 216
e 101 145
e 101 159
e 101 160
e 101 185
e 102 149
e 102 177
e 102 202
e 102 212
e 102 279
e 102 283
e 103 131
e 103 178
e 103 184
e 104 192
e 104 206
e 104 210
e 104 218
e 104 267
e 104 300
e 105 128
e 105 160
e 105 173
e 105 188
e 105 230
e 105 253
e 105 254
e 106 152
e 106 197
e 106 216
e 106 270
e 107 109
e 107 177
e 108 113
e 108 147
e 108 149
e 108 156
e 108 196
e 108 235
e 109 150
e 109 222
e 109 242
e 109 289
e 110 119
e 110 124
e 110 168
e 110 250
e 110 289
e 111 141
e 111 148
e 111 175
e 111 177
e 111 196
e 111 230
e 112 132
e 112 189
e 112 251
e 113 121
e 113 149
e 113 185
e 113 264
e 113 270
e 113 296
e 114 279
e 115 118
e 115 126
e 115 195
e 116 132
e 116 144
e 116 178
e 116 187
e 116 277
e 116 284
e 116 293
e 117 140
e 118 162
e 118 171
e 118 179
e 118 192
e 118 216
e 118 232
e 118 274
e 119 158
e 119 169
e 119 180
e 119 192
e 119 198
e 119 203
e 119 254
e 119 287
e 120 153
e 120 165
e 120 171
e 120 224
e 120 295
e 121 153
e 121 250
e 122 149
e 122 183
e 122 204
e 122 227
e 122 282
e 122 295
e 123 169
e 123 174
e 123 237
e 124 202
e 124 252
e 124 295
e 125 209
e 125 254
e 126 208
e 126 285
e 127 174
e 127 178
e 127 206
e 127 244
e 127 252
e 127 267
e 128 208
e 129 288
e 130 145
e 130 163
e 131 144
e 131 190
e 131 194
e 131 242
e 131 278
e 132 181
e 132 272
e 132 277
e 132 298
e 133 134
e 133 212
e 133 284
e 133 295
e 134 144
e 134 163
e 135 179
e 135 184
e 135 204
e 136 166
e 137 207
e 137 295
e 138 300
e 139 170
e 139 248
e 139 285
e 140 167
e 140 240
e 140 243
e 140 273
e 141 153
e 141 250
e 142 172
e 144 174
e 144 211
e 144 262
e 144 266
e 145 254
e 145 276
e 145 286
e 146 188
e 146 262
e 147 153
e 147 169
e 147 185
e 147 196
e 147 197
e 147 230
e 148 172
e 148 226
e 148 259
e 148 292
e 149 156
e 149 159
e 149 179
e 149 195
e 149 211
e 149 262
e 149 277
e 150 220
e 150 260
e 150 279
e 150 287
e 151 286
e 151 295
e 152 267
e 152 282
e 153 172
e 153 229
e 153 244
e 154 207
e 155 165
e 155 190
e 155 200
e 155 250
e 155 291
e 156 244
e 156 259
e 156 261
e 156 264
e 157 250
e 158 169
e 158 170
e 158 245
e 158 281
e 158 286
e 159 180
e 159 195
e 159 201
e 159 252
e 159 265
e 160 178
e 160 244
e 161 193
e 161 206
e 161 232
e 161 237
e 161 268
e 162 216
e 162 280
e 163 223
e 164 217
e 164 260
e 164 277
e 164 297
e 165 189
e 165 259
e 166 276
e 167 174
e 167 193
e 167 199
e 167 276
e 168 201
e 168 207
e 168 220
e 169 220
e 169 237
e 170 214
e 170 239
e 172 260
e 173 180
e 173 194
e 174 265
e 175 188
e 175 282
e 176 216
e 176 268
e 177 213
e 178 231
e 179 261
e 180 198
e 181 205
e 181 206
e 181 236
e 181 257
e 181 299
e 182 265
e 182 283
e 184 204
e 184 217
e 184 271
e 186 192
e 187 198
e 187 218
e 187 295
e 188 224
e 188 264
e 188 268
e 189 209
e 189 223
e 189 257
e 189 264
e 190 210
e 190 237
e 190 259
e 190 299
e 191 225
e 191 241
e 191 290
e 192 271
e 192 281
e 192 283
e 193 225
e 193 281
e 194 228
e 194 236
e 194 273
e 195 253
e 195 258
e 196 216
e 196 282
e 197 255
e 198 256
e 199 226
e 200 253
e 201 223
e 201 236
e 201 255
e 201 261
e 202 223
e 202 288
e 205 219
e 206 239
e 206 283
e 206 300
e 207 259
e 207 268
e 207 272
e 208 221
e 208 248
e 208 284
e 210 216
e 210 237
e 210 298
e 211 245
e 212 235
e 212 258
e 212 265
e 212 281
e 213 219
e 213 245
e 213 258
e 213 273
e 215 236
e 215 292
e 215 293
e 216 221
e 216 238
e 217 243
e 217 256
e 218 278
e 219 274
e 221 262
e 221 279
e 222 251
e 223 243
e 225 243
e 225 245
e 225 254
e 226 265
e 226 293
e 227 229
e 227 249
e 228 230
e 228 298
e 230 277
e 233 270
e 234 268
e 234 278
e 235 239
e 235 295
e 237 238
e 239 259
e 239 262
e 239 269
e 239 271
e 239 289
e 240 244
e 241 297
e 242 264
e 242 265
e 242 286
e 243 281
e 244 245
e 244 295
e 246 294
e 247 257
e 247 299
e 248 294
e 249 268
e 249 283
e 250 260
e 250 277
e 251 268
e 252 260
e 252 283
e 253 267
e 253 285
e 256 281
e 256 284
e 257 283
e 257 284
e 257 290
e 260 268
e 262 264
e 262 279
e 262 288
e 263 268
e 268 289
e 268 291
e 271 286
e 272 299
e 273 293
e 281 287
e 285 290
e 289 293
e 290 296
e 291 296
e 293 296
